40
    51    95    45    65    20    23    23    96    40    39    87    51    52    42    80    46    23    88    21    98    51    81     9    28    60    83    20    59     3     5     8    19    61    15     5    38    42    32    23    50
     4    10    10     9     4     4    10    10     5     9     6     1     4     6     7     7     7     1     4     4    10     8     2     8     4     4     1     9     2     4     1     3     4     9     9     2     7     6     2     5
   374   413     0     0     0     0   422     0    51     0     0   134    25   500   511     0     0   337     0     0   281   399     0     0   276     0     0   211     0     0   461   509   518     0     0     0    89   528   265   364
